
  12    4
  10   10   10   10

   0   0   0   0   0   3 2 3 5 
  10  10  10  10  10   3 11 7 4 
   1  10  10  10  10   1 4 
   5  10  10  10  10   3 10 8 6 
   5  10  10  10  10   3 11 8 6 
   6  10  10  10  10   1 9 
   6  10  10  10  10   1 8 
   9  10  10  10  10   1 12
   3  10  10  10  10   1 12
   3  10  10  10  10   1 12
  10  10  10  10  10   1 12
   0   0   0   0   0   0 
